\Generated by Cardinal Operations

Maximize
   585 x_0_0 + 557 x_1_0 + 963 x_2_0 + 301 x_3_0 + 425 x_4_0 + 260 x_5_0 
   + 848 x_6_0 + 461 x_7_0 + 840 x_8_0 + 999 x_9_0 + 392 x_10_0 
   + 874 x_11_0 + 695 x_12_0 + 405 x_13_0 + 320 x_14_0 + 913 x_15_0 
   + 754 x_16_0 + 428 x_17_0 + 711 x_18_0 + 998 x_19_0 
Subject To
 capacity_constraint: 50 x_0_0 + 329 x_1_0 + 410 x_2_0 + 452 x_3_0 
   + 350 x_4_0 + 159 x_5_0 + 353 x_6_0 + 291 x_7_0 + 302 x_8_0 + 50 x_9_0 
   + 250 x_10_0 + 178 x_11_0 + 313 x_12_0 + 378 x_13_0 + 94 x_14_0 
   + 97 x_15_0 + 470 x_16_0 + 341 x_17_0 + 121 x_18_0 + 61 x_19_0 <= 4120
Generals
 x_0_0  x_1_0  x_2_0  x_3_0  x_4_0  x_5_0  x_6_0  x_7_0  x_8_0  x_9_0  
 x_10_0  x_11_0  x_12_0  x_13_0  x_14_0  x_15_0  x_16_0  x_17_0  x_18_0  
 x_19_0  
END

